(set-info :smt-lib-version 2.6)
(set-logic QF_UFNIA)
(set-info :source |
Generated by: David Deharbe, CLEARSY
Generated on: 2019-09-06
Generator: bxml;pog;pog2smt (Atelier B)
Application: B-method
Target solver: CVC4, Z3
|)
(set-info :license "https://creativecommons.org/licenses/by-nc/4.0/")
(set-info :category "industrial")
(set-info :status unsat)
; Prelude
(declare-fun |*r| (Int Int) Int)
(declare-fun |+r| (Int Int) Int)
(declare-fun |-r| (Int Int) Int)
(declare-fun rdiv (Int Int) Int)
(declare-fun |<r| (Int Int) Bool)
(declare-fun |<=r| (Int Int) Bool)
(declare-fun |>r| (Int Int) Bool)
(declare-fun |>=r| (Int Int) Bool)
(declare-fun ruminus (Int) Int)
(declare-fun TRUE () Int)
(declare-fun FALSE () Int)
(assert (not (= TRUE FALSE)))
(declare-fun empty () Int)
(declare-fun bool (Bool) Int)
(declare-fun BOOL () Int)
(declare-fun INT () Int)
(declare-fun INTEGER () Int)
(declare-fun NAT () Int)
(declare-fun NAT1 () Int)
(declare-fun NATURAL () Int)
(declare-fun NATURAL1 () Int)
(declare-fun FLOAT () Int)
(declare-fun MaxInt () Int)
(declare-fun MinInt () Int)
(declare-fun |STRING| () Int)
(declare-fun REAL () Int)
(declare-fun set_prod (Int Int) Int)
(declare-fun set_diff (Int Int) Int)
(declare-fun mapplet (Int Int) Int)
(declare-fun |**i| (Int Int) Int)
(declare-fun |**r| (Int Int) Int)
(declare-fun |+->| (Int Int) Int)
(declare-fun |+->>| (Int Int) Int)
(declare-fun |-->| (Int Int) Int)
(declare-fun |-->>| (Int Int) Int)
(declare-fun |<->| (Int Int) Int)
(declare-fun |>+>| (Int Int) Int)
(declare-fun |>->| (Int Int) Int)
(declare-fun |>+>>| (Int Int) Int)
(declare-fun |>->>| (Int Int) Int)
(declare-fun |->| (Int Int) Int)
(declare-fun interval (Int Int) Int)
(declare-fun composition (Int Int) Int)
(declare-fun binary_inter (Int Int) Int)
(declare-fun restriction_head (Int Int) Int)
(declare-fun semicolon (Int Int) Int)
(declare-fun |<+| (Int Int) Int)
(declare-fun |<-| (Int Int) Int)
(declare-fun domain_subtraction (Int Int) Int)
(declare-fun domain_restriction (Int Int) Int)
(declare-fun |><| (Int Int) Int)
(declare-fun parallel_product (Int Int) Int)
(declare-fun binary_union (Int Int) Int)
(declare-fun restriction_tail (Int Int) Int)
(declare-fun concatenate (Int Int) Int)
(declare-fun range_restriction (Int Int) Int)
(declare-fun range_subtraction (Int Int) Int)
(declare-fun image (Int Int) Int)
(declare-fun apply (Int Int) Int)
(declare-fun prj1 (Int Int) Int)
(declare-fun prj2 (Int Int) Int)
(declare-fun iterate (Int Int) Int)
(declare-fun |const| (Int Int) Int)
(declare-fun rank (Int Int) Int)
(declare-fun father (Int Int) Int)
(declare-fun subtree (Int Int) Int)
(declare-fun arity (Int Int) Int)
(declare-fun |+f| (Int Int) Int)
(declare-fun |-f| (Int Int) Int)
(declare-fun |*f| (Int Int) Int)
(declare-fun |fdiv| (Int Int) Int)
(declare-fun tbin (Int Int Int) Int)
(declare-fun son (Int Int Int) Int)
(declare-fun mem (Int Int) Bool)
(declare-fun subset (Int Int) Bool)
(declare-fun strict_subset (Int Int) Bool)
(declare-fun |<=f| (Int Int) Bool)
(declare-fun |<f| (Int Int) Bool)
(declare-fun |>=f| (Int Int) Bool)
(declare-fun |>f| (Int Int) Bool)
(declare-fun imax (Int) Int)
(declare-fun imin (Int) Int)
(declare-fun rmax (Int) Int)
(declare-fun rmin (Int) Int)
(declare-fun card (Int) Int)
(declare-fun dom (Int) Int)
(declare-fun ran (Int) Int)
(declare-fun POW (Int) Int)
(declare-fun POW1 (Int) Int)
(declare-fun FIN (Int) Int)
(declare-fun FIN1 (Int) Int)
(declare-fun union (Int) Int)
(declare-fun inter (Int) Int)
(declare-fun seq (Int) Int)
(declare-fun seq1 (Int) Int)
(declare-fun iseq (Int) Int)
(declare-fun iseq1 (Int) Int)
(declare-fun inverse (Int) Int)
(declare-fun size (Int) Int)
(declare-fun perm (Int) Int)
(declare-fun first (Int) Int)
(declare-fun last (Int) Int)
(declare-fun id (Int) Int)
(declare-fun closure (Int) Int)
(declare-fun closure1 (Int) Int)
(declare-fun tail (Int) Int)
(declare-fun front (Int) Int)
(declare-fun reverse (Int) Int)
(declare-fun rev (Int) Int)
(declare-fun conc (Int) Int)
(declare-fun succ (Int) Int)
(declare-fun pred (Int) Int)
(declare-fun rel (Int) Int)
(declare-fun fnc (Int) Int)
(declare-fun real (Int) Int)
(declare-fun floor (Int) Int)
(declare-fun ceiling (Int) Int)
(declare-fun tree (Int) Int)
(declare-fun btree (Int) Int)
(declare-fun top (Int) Int)
(declare-fun sons (Int) Int)
(declare-fun prefix (Int) Int)
(declare-fun postfix (Int) Int)
(declare-fun sizet (Int) Int)
(declare-fun mirror (Int) Int)
(declare-fun left (Int) Int)
(declare-fun right (Int) Int)
(declare-fun infix (Int) Int)
(declare-fun ubin (Int) Int)
(declare-fun SEQ (Int) Int)
(declare-fun SET (Int) Int)
; Opaque formulas
(declare-fun g_s0_0 () Int)
(declare-fun g_s1_1 () Int)
(declare-fun g_s10_10 () Int)
(declare-fun g_s100_100 () Int)
(declare-fun g_s101_101 () Int)
(declare-fun g_s102_102 () Int)
(declare-fun g_s103_103 () Int)
(declare-fun g_s104_104 () Int)
(declare-fun g_s105_105 () Int)
(declare-fun g_s106_106 () Int)
(declare-fun g_s107_107 () Int)
(declare-fun g_s108_108 () Int)
(declare-fun g_s109_109 () Int)
(declare-fun g_s11_11 () Int)
(declare-fun g_s110_110 () Int)
(declare-fun g_s111_111 () Int)
(declare-fun g_s112_112 () Int)
(declare-fun g_s113_113 () Int)
(declare-fun g_s114_114 () Int)
(declare-fun g_s115_115 () Int)
(declare-fun g_s116_116 () Int)
(declare-fun g_s117_117 () Int)
(declare-fun g_s118_118 () Int)
(declare-fun g_s119_119 () Int)
(declare-fun g_s12_12 () Int)
(declare-fun g_s120_120 () Int)
(declare-fun g_s121_121 () Int)
(declare-fun g_s122_122 () Int)
(declare-fun g_s123_123 () Int)
(declare-fun g_s124_124 () Int)
(declare-fun g_s125_125 () Int)
(declare-fun g_s126_126 () Int)
(declare-fun g_s127_127 () Int)
(declare-fun g_s128_128 () Int)
(declare-fun g_s129_129 () Int)
(declare-fun g_s13_13 () Int)
(declare-fun g_s130_130 () Int)
(declare-fun g_s131_131 () Int)
(declare-fun g_s132_132 () Int)
(declare-fun g_s133_133 () Int)
(declare-fun g_s134_134 () Int)
(declare-fun g_s135_135 () Int)
(declare-fun g_s136_136 () Int)
(declare-fun g_s137_137 () Int)
(declare-fun g_s138_138 () Int)
(declare-fun g_s139_139 () Int)
(declare-fun g_s14_14 () Int)
(declare-fun g_s140_140 () Int)
(declare-fun g_s141_141 () Int)
(declare-fun g_s142_142 () Int)
(declare-fun g_s143_143 () Int)
(declare-fun g_s144_144 () Int)
(declare-fun g_s145_145 () Int)
(declare-fun g_s146_146 () Int)
(declare-fun g_s147_147 () Int)
(declare-fun g_s148_148 () Int)
(declare-fun g_s149_149 () Int)
(declare-fun g_s15_15 () Int)
(declare-fun g_s150_150 () Int)
(declare-fun g_s151_151 () Int)
(declare-fun g_s152_152 () Int)
(declare-fun g_s153_153 () Int)
(declare-fun g_s154_154 () Int)
(declare-fun g_s155_155 () Int)
(declare-fun g_s156_156 () Int)
(declare-fun g_s157_157 () Int)
(declare-fun g_s158_158 () Int)
(declare-fun g_s159_159 () Int)
(declare-fun g_s16_16 () Int)
(declare-fun g_s160_160 () Int)
(declare-fun g_s161_161 () Int)
(declare-fun g_s162_162 () Int)
(declare-fun g_s163_163 () Int)
(declare-fun g_s164_164 () Int)
(declare-fun g_s165_165 () Int)
(declare-fun g_s166_166 () Int)
(declare-fun g_s167_167 () Int)
(declare-fun g_s168_168 () Int)
(declare-fun g_s169_169 () Int)
(declare-fun g_s17_17 () Int)
(declare-fun g_s170_170 () Int)
(declare-fun g_s171_171 () Int)
(declare-fun g_s172_172 () Int)
(declare-fun g_s174_174 () Int)
(declare-fun g_s175_175 () Int)
(declare-fun g_s176_177 () Int)
(declare-fun g_s177_178 () Int)
(declare-fun g_s18_18 () Int)
(declare-fun g_s180_180 () Int)
(declare-fun g_s181_181 () Int)
(declare-fun g_s182_182 () Int)
(declare-fun g_s183_184 () Int)
(declare-fun g_s184_185 () Int)
(declare-fun g_s185_186 () Int)
(declare-fun g_s188_188 () Int)
(declare-fun g_s189_189 () Int)
(declare-fun g_s19_19 () Int)
(declare-fun g_s190_190 () Int)
(declare-fun g_s191_191 () Int)
(declare-fun g_s192_193 () Int)
(declare-fun g_s193_194 () Int)
(declare-fun g_s194_195 () Int)
(declare-fun g_s195_196 () Int)
(declare-fun g_s196_198 () Int)
(declare-fun g_s197_199 () Int)
(declare-fun g_s198_200 () Int)
(declare-fun g_s199_202 () Int)
(declare-fun g_s2_2 () Int)
(declare-fun g_s20_20 () Int)
(declare-fun g_s200_203 () Int)
(declare-fun g_s201_204 () Int)
(declare-fun g_s202_206 () Int)
(declare-fun g_s203_207 () Int)
(declare-fun g_s204_208 () Int)
(declare-fun g_s205_209 () Int)
(declare-fun g_s206_210 () Int)
(declare-fun g_s209_212 () Int)
(declare-fun g_s21_21 () Int)
(declare-fun g_s210_213 () Int)
(declare-fun g_s212_215 () Int)
(declare-fun g_s213_217 () Int)
(declare-fun g_s215_218 () Int)
(declare-fun g_s216_219 () Int)
(declare-fun g_s217_220 () Int)
(declare-fun g_s218_221 () Int)
(declare-fun g_s219_222 () Int)
(declare-fun g_s22_22 () Int)
(declare-fun g_s220_223 () Int)
(declare-fun g_s221_224 () Int)
(declare-fun g_s222_225 () Int)
(declare-fun g_s223_226 () Int)
(declare-fun g_s224_227 () Int)
(declare-fun g_s225_228 () Int)
(declare-fun g_s226_229 () Int)
(declare-fun g_s227_230 () Int)
(declare-fun g_s228_231 () Int)
(declare-fun g_s229_232 () Int)
(declare-fun g_s23_23 () Int)
(declare-fun g_s230_233 () Int)
(declare-fun g_s231_234 () Int)
(declare-fun g_s232_235 () Int)
(declare-fun g_s233_236 () Int)
(declare-fun g_s234_237 () Int)
(declare-fun g_s235_238 () Int)
(declare-fun g_s236_239 () Int)
(declare-fun g_s237_240 () Int)
(declare-fun g_s238_241 () Int)
(declare-fun g_s239_242 () Int)
(declare-fun g_s24_24 () Int)
(declare-fun g_s240_243 () Int)
(declare-fun g_s241_244 () Int)
(declare-fun g_s242_245 () Int)
(declare-fun g_s243_246 () Int)
(declare-fun g_s244_247 () Int)
(declare-fun g_s245_248 () Int)
(declare-fun g_s246_249 () Int)
(declare-fun g_s247_250 () Int)
(declare-fun g_s248_251 () Int)
(declare-fun g_s249_252 () Int)
(declare-fun g_s25_25 () Int)
(declare-fun g_s250_253 () Int)
(declare-fun g_s251_254 () Int)
(declare-fun g_s252_255 () Int)
(declare-fun g_s253_256 () Int)
(declare-fun g_s254_257 () Int)
(declare-fun g_s255_258 () Int)
(declare-fun g_s256_259 () Int)
(declare-fun g_s257_260 () Int)
(declare-fun g_s258_261 () Int)
(declare-fun g_s259_262 () Int)
(declare-fun g_s26_26 () Int)
(declare-fun g_s260_263 () Int)
(declare-fun g_s261_264 () Int)
(declare-fun g_s262_265 () Int)
(declare-fun g_s263_266 () Int)
(declare-fun g_s264_267 () Int)
(declare-fun g_s265_268 () Int)
(declare-fun g_s266_269 () Int)
(declare-fun g_s267_270 () Int)
(declare-fun g_s268_271 () Int)
(declare-fun g_s269_272 () Int)
(declare-fun g_s27_27 () Int)
(declare-fun g_s270_273 () Int)
(declare-fun g_s271_274 () Int)
(declare-fun g_s272_275 () Int)
(declare-fun g_s273_276 () Int)
(declare-fun g_s274_277 () Int)
(declare-fun g_s275_278 () Int)
(declare-fun g_s276_279 () Int)
(declare-fun g_s277_280 () Int)
(declare-fun g_s278_281 () Int)
(declare-fun g_s279_282 () Int)
(declare-fun g_s28_28 () Int)
(declare-fun g_s280_283 () Int)
(declare-fun g_s281_284 () Int)
(declare-fun g_s282_285 () Int)
(declare-fun g_s283_286 () Int)
(declare-fun g_s284_287 () Int)
(declare-fun g_s285_288 () Int)
(declare-fun g_s286_289 () Int)
(declare-fun g_s287_290 () Int)
(declare-fun g_s288_291 () Int)
(declare-fun g_s289_292 () Int)
(declare-fun g_s29_29 () Int)
(declare-fun g_s290_293 () Int)
(declare-fun g_s291_294 () Int)
(declare-fun g_s292_295 () Int)
(declare-fun g_s293_296 () Int)
(declare-fun g_s294_297 () Int)
(declare-fun g_s295_298 () Int)
(declare-fun g_s296_299 () Int)
(declare-fun g_s297_300 () Int)
(declare-fun g_s298_301 () Int)
(declare-fun g_s299_302 () Int)
(declare-fun g_s3_3 () Int)
(declare-fun g_s30_30 () Int)
(declare-fun g_s300_303 () Int)
(declare-fun g_s301_304 () Int)
(declare-fun g_s302_305 () Int)
(declare-fun g_s303_306 () Int)
(declare-fun g_s304_307 () Int)
(declare-fun g_s305_308 () Int)
(declare-fun g_s306_309 () Int)
(declare-fun g_s307_310 () Int)
(declare-fun g_s308_311 () Int)
(declare-fun g_s309_312 () Int)
(declare-fun g_s31_31 () Int)
(declare-fun g_s310_313 () Int)
(declare-fun g_s311_314 () Int)
(declare-fun g_s312_315 () Int)
(declare-fun g_s313_316 () Int)
(declare-fun g_s314_317 () Int)
(declare-fun g_s315_318 () Int)
(declare-fun g_s316_319 () Int)
(declare-fun g_s317_320 () Int)
(declare-fun g_s318_321 () Int)
(declare-fun g_s319_322 () Int)
(declare-fun g_s32_32 () Int)
(declare-fun g_s320_323 () Int)
(declare-fun g_s321_324 () Int)
(declare-fun g_s322_325 () Int)
(declare-fun g_s323_326 () Int)
(declare-fun g_s324_327 () Int)
(declare-fun g_s325_328 () Int)
(declare-fun g_s326_329 () Int)
(declare-fun g_s327_330 () Int)
(declare-fun g_s328_331 () Int)
(declare-fun g_s329_332 () Int)
(declare-fun g_s33_33 () Int)
(declare-fun g_s330_333 () Int)
(declare-fun g_s331_334 () Int)
(declare-fun g_s332_335 () Int)
(declare-fun g_s333_336 () Int)
(declare-fun g_s334_337 () Int)
(declare-fun g_s335_338 () Int)
(declare-fun g_s336_339 () Int)
(declare-fun g_s337_340 () Int)
(declare-fun g_s338_341 () Int)
(declare-fun g_s339_342 () Int)
(declare-fun g_s34_34 () Int)
(declare-fun g_s340_343 () Int)
(declare-fun g_s341_344 () Int)
(declare-fun g_s342_345 () Int)
(declare-fun g_s343_346 () Int)
(declare-fun g_s344_347 () Int)
(declare-fun g_s345_348 () Int)
(declare-fun g_s346_349 () Int)
(declare-fun g_s347_350 () Int)
(declare-fun g_s348_351 () Int)
(declare-fun g_s349_352 () Int)
(declare-fun g_s35_35 () Int)
(declare-fun g_s350_353 () Int)
(declare-fun g_s351_354 () Int)
(declare-fun g_s352_355 () Int)
(declare-fun g_s353_356 () Int)
(declare-fun g_s354_357 () Int)
(declare-fun g_s355_358 () Int)
(declare-fun g_s356_359 () Int)
(declare-fun g_s357_360 () Int)
(declare-fun g_s358_361 () Int)
(declare-fun g_s359_362 () Int)
(declare-fun g_s36_36 () Int)
(declare-fun g_s360_363 () Int)
(declare-fun g_s361_364 () Int)
(declare-fun g_s362_365 () Int)
(declare-fun g_s363_366 () Int)
(declare-fun g_s364_367 () Int)
(declare-fun g_s365_368 () Int)
(declare-fun g_s366_369 () Int)
(declare-fun g_s367_370 () Int)
(declare-fun g_s368_371 () Int)
(declare-fun g_s369_372 () Int)
(declare-fun g_s37_37 () Int)
(declare-fun g_s370_373 () Int)
(declare-fun g_s371_374 () Int)
(declare-fun g_s372_375 () Int)
(declare-fun g_s373_376 () Int)
(declare-fun g_s374_377 () Int)
(declare-fun g_s375_378 () Int)
(declare-fun g_s376_379 () Int)
(declare-fun g_s377_380 () Int)
(declare-fun g_s378_381 () Int)
(declare-fun g_s379_382 () Int)
(declare-fun g_s38_38 () Int)
(declare-fun g_s380_383 () Int)
(declare-fun g_s381_384 () Int)
(declare-fun g_s382_385 () Int)
(declare-fun g_s383_386 () Int)
(declare-fun g_s384_387 () Int)
(declare-fun g_s385_388 () Int)
(declare-fun g_s386_389 () Int)
(declare-fun g_s387_390 () Int)
(declare-fun g_s388_391 () Int)
(declare-fun g_s389_392 () Int)
(declare-fun g_s39_39 () Int)
(declare-fun g_s390_393 () Int)
(declare-fun g_s391_394 () Int)
(declare-fun g_s392_395 () Int)
(declare-fun g_s393_396 () Int)
(declare-fun g_s394_397 () Int)
(declare-fun g_s395_398 () Int)
(declare-fun g_s396_399 () Int)
(declare-fun g_s397_400 () Int)
(declare-fun g_s398_401 () Int)
(declare-fun g_s399_402 () Int)
(declare-fun g_s4_4 () Int)
(declare-fun g_s40_40 () Int)
(declare-fun g_s400_403 () Int)
(declare-fun g_s401_404 () Int)
(declare-fun g_s402_405 () Int)
(declare-fun g_s403_406 () Int)
(declare-fun g_s404_407 () Int)
(declare-fun g_s405_408 () Int)
(declare-fun g_s406_409 () Int)
(declare-fun g_s407_410 () Int)
(declare-fun g_s408_411 () Int)
(declare-fun g_s409_412 () Int)
(declare-fun g_s41_41 () Int)
(declare-fun g_s410_413 () Int)
(declare-fun g_s411_414 () Int)
(declare-fun g_s412_415 () Int)
(declare-fun g_s413_416 () Int)
(declare-fun g_s414_417 () Int)
(declare-fun g_s415_418 () Int)
(declare-fun g_s416_419 () Int)
(declare-fun g_s417_420 () Int)
(declare-fun g_s418_421 () Int)
(declare-fun g_s419_422 () Int)
(declare-fun g_s42_42 () Int)
(declare-fun g_s420_423 () Int)
(declare-fun g_s421_424 () Int)
(declare-fun g_s422_425 () Int)
(declare-fun g_s43_43 () Int)
(declare-fun g_s44_44 () Int)
(declare-fun g_s45_45 () Int)
(declare-fun g_s46_46 () Int)
(declare-fun g_s47_47 () Int)
(declare-fun g_s48_48 () Int)
(declare-fun g_s49_49 () Int)
(declare-fun g_s5_5 () Int)
(declare-fun g_s50_50 () Int)
(declare-fun g_s51_51 () Int)
(declare-fun g_s52_52 () Int)
(declare-fun g_s53_53 () Int)
(declare-fun g_s54_54 () Int)
(declare-fun g_s55_55 () Int)
(declare-fun g_s56_56 () Int)
(declare-fun g_s57_57 () Int)
(declare-fun g_s58_58 () Int)
(declare-fun g_s59_59 () Int)
(declare-fun g_s6_6 () Int)
(declare-fun g_s60_60 () Int)
(declare-fun g_s61_61 () Int)
(declare-fun g_s62_62 () Int)
(declare-fun g_s63_63 () Int)
(declare-fun g_s64_64 () Int)
(declare-fun g_s65_65 () Int)
(declare-fun g_s66_66 () Int)
(declare-fun g_s67_67 () Int)
(declare-fun g_s68_68 () Int)
(declare-fun g_s69_69 () Int)
(declare-fun g_s7_7 () Int)
(declare-fun g_s70_70 () Int)
(declare-fun g_s71_71 () Int)
(declare-fun g_s72_72 () Int)
(declare-fun g_s73_73 () Int)
(declare-fun g_s74_74 () Int)
(declare-fun g_s75_75 () Int)
(declare-fun g_s76_76 () Int)
(declare-fun g_s77_77 () Int)
(declare-fun g_s78_78 () Int)
(declare-fun g_s79_79 () Int)
(declare-fun g_s8_8 () Int)
(declare-fun g_s80_80 () Int)
(declare-fun g_s81_81 () Int)
(declare-fun g_s82_82 () Int)
(declare-fun g_s83_83 () Int)
(declare-fun g_s84_84 () Int)
(declare-fun g_s85_85 () Int)
(declare-fun g_s86_86 () Int)
(declare-fun g_s87_87 () Int)
(declare-fun g_s88_88 () Int)
(declare-fun g_s89_89 () Int)
(declare-fun g_s9_9 () Int)
(declare-fun g_s90_90 () Int)
(declare-fun g_s91_91 () Int)
(declare-fun g_s92_92 () Int)
(declare-fun g_s93_93 () Int)
(declare-fun g_s94_94 () Int)
(declare-fun g_s95_95 () Int)
(declare-fun g_s96_96 () Int)
(declare-fun g_s97_97 () Int)
(declare-fun g_s98_98 () Int)
(declare-fun g_s99_99 () Int)
(declare-fun e205 () Int)
(declare-fun e173 () Int)
(declare-fun e176 () Int)
(declare-fun e214 () Int)
(declare-fun e216 () Int)
(declare-fun e183 () Int)
(declare-fun e179 () Int)
(declare-fun e201 () Int)
(declare-fun e197 () Int)
(declare-fun e187 () Int)
(declare-fun e192 () Int)
(declare-fun e211 () Int)
; Defines
(define-fun |def_B definitions| () Bool (and (= NAT (interval 0 MaxInt)) (= INT (interval MinInt MaxInt))))
(define-fun |def_ctx| () Bool (and (= g_s0_0 (SET (mapplet g_s3_3 (mapplet g_s2_2 g_s1_1)))) (= g_s4_4 (SET (mapplet g_s7_7 (mapplet g_s6_6 g_s5_5)))) (= g_s8_8 (SET (mapplet g_s11_11 (mapplet g_s10_10 g_s9_9)))) (= g_s12_12 (SET (mapplet g_s17_17 (mapplet g_s16_16 (mapplet g_s15_15 (mapplet g_s14_14 g_s13_13)))))) (= g_s18_18 (SET (mapplet g_s20_20 g_s19_19))) (= g_s21_21 (SET (mapplet g_s25_25 (mapplet g_s24_24 (mapplet g_s23_23 g_s22_22))))) (= g_s26_26 (SET (mapplet g_s31_31 (mapplet g_s30_30 (mapplet g_s29_29 (mapplet g_s28_28 g_s27_27)))))) (= g_s32_32 (SET (mapplet g_s35_35 (mapplet g_s34_34 g_s33_33)))) (= g_s36_36 (SET (mapplet g_s38_38 g_s37_37))) (= g_s39_39 (SET (mapplet g_s42_42 (mapplet g_s41_41 g_s40_40)))) (= g_s43_43 (SET (mapplet g_s46_46 (mapplet g_s45_45 g_s44_44)))) (= g_s47_47 (SET (mapplet g_s50_50 (mapplet g_s49_49 g_s48_48)))) (= g_s51_51 (SET (mapplet g_s55_55 (mapplet g_s54_54 (mapplet g_s53_53 g_s52_52))))) (= g_s56_56 (SET (mapplet g_s71_71 (mapplet g_s70_70 (mapplet g_s69_69 (mapplet g_s68_68 (mapplet g_s67_67 (mapplet g_s66_66 (mapplet g_s65_65 (mapplet g_s64_64 (mapplet g_s63_63 (mapplet g_s62_62 (mapplet g_s61_61 (mapplet g_s60_60 (mapplet g_s59_59 (mapplet g_s58_58 g_s57_57)))))))))))))))) (= g_s72_72 (SET (mapplet g_s104_104 (mapplet g_s103_103 (mapplet g_s102_102 (mapplet g_s101_101 (mapplet g_s100_100 (mapplet g_s99_99 (mapplet g_s98_98 (mapplet g_s97_97 (mapplet g_s96_96 (mapplet g_s95_95 (mapplet g_s94_94 (mapplet g_s93_93 (mapplet g_s92_92 (mapplet g_s91_91 (mapplet g_s90_90 (mapplet g_s89_89 (mapplet g_s88_88 (mapplet g_s87_87 (mapplet g_s86_86 (mapplet g_s85_85 (mapplet g_s84_84 (mapplet g_s83_83 (mapplet g_s82_82 (mapplet g_s81_81 (mapplet g_s80_80 (mapplet g_s79_79 (mapplet g_s78_78 (mapplet g_s77_77 (mapplet g_s76_76 (mapplet g_s75_75 (mapplet g_s74_74 g_s73_73))))))))))))))))))))))))))))))))) (= g_s105_105 (SET (mapplet g_s109_109 (mapplet g_s108_108 (mapplet g_s107_107 g_s106_106))))) (= g_s110_110 (SET (mapplet g_s117_117 (mapplet g_s116_116 (mapplet g_s115_115 (mapplet g_s114_114 (mapplet g_s113_113 (mapplet g_s112_112 g_s111_111)))))))) (= g_s118_118 (SET (mapplet g_s122_122 (mapplet g_s121_121 (mapplet g_s120_120 g_s119_119))))) (= g_s123_123 (SET (mapplet g_s128_128 (mapplet g_s127_127 (mapplet g_s126_126 (mapplet g_s125_125 g_s124_124)))))) (= g_s129_129 BOOL) (= g_s130_130 BOOL) (= g_s131_131 INT) (= g_s132_132 INT) (= g_s133_133 INT) (= g_s134_134 g_s133_133) (= g_s135_135 g_s133_133) (= g_s136_136 g_s131_131) (= g_s137_137 g_s129_129) (= g_s138_138 INT) (= g_s139_139 INT) (= g_s140_140 0) (= g_s141_141 1) (= g_s142_142 2) (= g_s143_143 3) (= g_s144_144 4) (= g_s145_145 5) (= g_s146_146 6) (= g_s147_147 7) (= g_s148_148 8) (= g_s149_149 9) (= g_s150_150 10) (= g_s151_151 11) (= g_s152_152 12) (= g_s153_153 13) (= g_s154_154 14) (= g_s155_155 15) (= g_s156_156 16) (= g_s157_157 17) (= g_s158_158 18) (= g_s159_159 19) (= g_s160_160 20) (= g_s161_161 21) (= g_s162_162 22) (= g_s163_163 23) (= g_s164_164 24) (= g_s165_165 25) (= g_s166_166 26) (= g_s167_167 27) (= g_s168_168 28) (= g_s169_169 29) (= g_s170_170 30) (= g_s171_171 31) (mem g_s172_172 (|-->| BOOL BOOL)) (= g_s172_172 e173) (mem g_s174_174 (|-->| BOOL BOOL)) (= g_s174_174 g_s172_172) (mem g_s175_175 (|-->| BOOL BOOL)) (= g_s175_175 e176) (mem g_s176_177 (|-->| BOOL BOOL)) (= g_s176_177 g_s175_175) (mem g_s177_178 (|-->| (set_prod BOOL BOOL) BOOL)) (= g_s177_178 e179) (mem g_s180_180 (|-->| (set_prod BOOL BOOL) BOOL)) (= g_s180_180 g_s177_178) (mem g_s181_181 (|-->| (set_prod BOOL BOOL) BOOL)) (= g_s181_181 g_s177_178) (mem g_s182_182 (|-->| (set_prod BOOL BOOL) BOOL)) (= g_s182_182 e183) (mem g_s183_184 (|-->| (set_prod BOOL BOOL) BOOL)) (= g_s183_184 g_s182_182) (mem g_s184_185 (|-->| (set_prod BOOL BOOL) BOOL)) (= g_s184_185 g_s182_182) (mem g_s185_186 (|-->| (set_prod g_s131_131 g_s131_131) BOOL)) (= g_s185_186 e187) (mem g_s188_188 (|-->| (set_prod g_s131_131 g_s131_131) BOOL)) (= g_s188_188 g_s185_186) (mem g_s189_189 (|-->| (set_prod g_s131_131 g_s131_131) BOOL)) (= g_s189_189 g_s185_186) (mem g_s190_190 (|-->| (set_prod g_s131_131 g_s131_131) BOOL)) (= g_s190_190 g_s185_186) (mem g_s191_191 (|-->| (set_prod g_s131_131 g_s131_131) BOOL)) (= g_s191_191 e192) (mem g_s192_193 (|-->| (set_prod g_s131_131 g_s131_131) BOOL)) (= g_s192_193 g_s191_191) (mem g_s193_194 (|-->| (set_prod g_s131_131 g_s131_131) BOOL)) (= g_s193_194 g_s191_191) (mem g_s194_195 (|-->| (set_prod g_s131_131 g_s131_131) BOOL)) (= g_s194_195 g_s191_191) (mem g_s195_196 (|-->| (set_prod g_s131_131 g_s131_131) BOOL)) (= g_s195_196 e197) (mem g_s196_198 (|-->| (set_prod g_s131_131 g_s131_131) BOOL)) (= g_s196_198 g_s195_196) (mem g_s197_199 (|-->| (set_prod g_s131_131 g_s131_131) BOOL)) (= g_s197_199 g_s195_196) (mem g_s198_200 (|-->| (set_prod g_s131_131 g_s131_131) BOOL)) (= g_s198_200 e201) (mem g_s199_202 (|-->| (set_prod g_s131_131 g_s131_131) BOOL)) (= g_s199_202 g_s198_200) (mem g_s200_203 (|-->| (set_prod g_s131_131 g_s131_131) BOOL)) (= g_s200_203 g_s198_200) (mem g_s201_204 (|-->| BOOL BOOL)) (= g_s201_204 e205) (mem g_s202_206 (|-->| BOOL BOOL)) (= g_s202_206 e205) (mem g_s203_207 (|-->| BOOL BOOL)) (= g_s203_207 e205) (mem g_s204_208 (|-->| BOOL BOOL)) (= g_s204_208 e205) (mem g_s205_209 (|-->| BOOL BOOL)) (= g_s205_209 e205) (mem g_s206_210 (|-->| (set_prod g_s134_134 g_s133_133) BOOL)) (= g_s206_210 e211) (mem g_s209_212 (|-->| (set_prod g_s133_133 g_s133_133) BOOL)) (= g_s209_212 g_s209_212) (mem g_s210_213 (|>->>| g_s133_133 g_s133_133)) (= g_s210_213 e214) (mem g_s212_215 (|>->>| g_s134_134 g_s134_134)) (= g_s212_215 g_s210_213) (= g_s213_217 e216) (= g_s215_218 e205) (subset g_s216_219 g_s0_0) (= g_s216_219 (SET (mapplet g_s3_3 g_s2_2))) (= g_s217_220 INT) (= g_s218_221 INT) (= g_s219_222 INT) (= g_s220_223 INT) (= g_s221_224 INT) (= g_s222_225 INT) (= g_s223_226 NAT) (= g_s224_227 INT) (= g_s225_228 INT) (= g_s226_229 INT) (= g_s227_230 NAT) (= g_s228_231 INT) (= g_s229_232 NAT) (= g_s230_233 NAT) (= g_s231_234 NAT) (subset g_s232_235 g_s216_219) (= g_s232_235 g_s216_219) (subset g_s233_236 g_s8_8) (= g_s233_236 g_s8_8) (subset g_s234_237 g_s56_56) (= g_s234_237 (SET (mapplet g_s71_71 (mapplet g_s67_67 (mapplet g_s66_66 (mapplet g_s65_65 (mapplet g_s64_64 (mapplet g_s63_63 (mapplet g_s62_62 (mapplet g_s61_61 (mapplet g_s60_60 (mapplet g_s59_59 (mapplet g_s58_58 g_s57_57))))))))))))) (= g_s235_238 g_s72_72) (= g_s236_239 g_s234_237) (= g_s237_240 g_s235_238) (= g_s238_241 g_s110_110) (= g_s239_242 g_s56_56) (= g_s240_243 g_s72_72) (= g_s241_244 g_s239_242) (= g_s242_245 g_s240_243) (mem g_s243_246 NAT) (= g_s243_246 3) (mem g_s244_247 NAT) (= g_s244_247 64) (subset g_s245_248 INT) (not (= g_s245_248 empty)) (= g_s245_248 (interval 0 g_s243_246)) (subset g_s246_249 INT) (not (= g_s246_249 empty)) (= g_s246_249 (interval 0 g_s244_247)) (mem g_s247_250 NAT) (= g_s247_250 4) (subset g_s248_251 INT) (not (= g_s248_251 empty)) (= g_s248_251 (interval 1 g_s247_250)) (subset g_s249_252 g_s245_248) (= g_s249_252 g_s245_248) (subset g_s250_253 g_s246_249) (= g_s250_253 g_s246_249) (subset g_s251_254 NAT) (mem g_s252_255 g_s251_254) (subset g_s253_256 NAT) (= g_s253_256 g_s251_254) (subset g_s254_257 NAT) (subset g_s255_258 NAT) (= g_s256_259 BOOL) (= g_s257_260 BOOL) (= g_s258_261 INT) (mem g_s259_262 g_s133_133) (mem g_s260_263 g_s133_133) (mem g_s261_264 g_s133_133) (mem g_s262_265 g_s133_133) (mem g_s263_266 g_s133_133) (mem g_s264_267 g_s133_133) (mem g_s265_268 g_s133_133) (mem g_s266_269 g_s133_133) (mem g_s267_270 g_s133_133) (mem g_s268_271 g_s133_133) (mem g_s269_272 g_s133_133) (mem g_s270_273 g_s133_133) (mem g_s271_274 g_s133_133) (mem g_s272_275 g_s133_133) (mem g_s273_276 g_s133_133) (mem g_s274_277 g_s133_133) (mem g_s275_278 g_s133_133) (mem g_s276_279 g_s133_133) (mem g_s277_280 g_s133_133) (mem g_s278_281 g_s133_133) (mem g_s279_282 g_s133_133) (mem g_s280_283 g_s133_133) (mem g_s281_284 g_s133_133) (mem g_s282_285 g_s133_133) (mem g_s283_286 g_s133_133) (mem g_s284_287 g_s133_133) (mem g_s285_288 g_s133_133) (mem g_s286_289 g_s133_133) (mem g_s287_290 g_s133_133) (mem g_s288_291 g_s133_133) (mem g_s289_292 g_s133_133) (mem g_s290_293 g_s133_133) (mem g_s291_294 g_s133_133) (mem g_s292_295 g_s133_133) (mem g_s293_296 g_s133_133) (mem g_s294_297 g_s133_133) (mem g_s295_298 g_s133_133) (mem g_s296_299 g_s133_133) (= g_s297_300 g_s133_133) (mem g_s298_301 g_s133_133) (mem g_s299_302 g_s133_133) (mem g_s300_303 g_s133_133) (mem g_s301_304 g_s133_133) (mem g_s302_305 g_s133_133) (mem g_s303_306 g_s133_133) (mem g_s304_307 g_s133_133) (= g_s301_304 g_s140_140) (= g_s302_305 g_s142_142) (= g_s303_306 g_s141_141) (= g_s304_307 g_s143_143) (= g_s259_262 g_s140_140) (= g_s260_263 g_s141_141) (= g_s261_264 g_s142_142) (= g_s262_265 g_s140_140) (= g_s263_266 g_s141_141) (= g_s264_267 g_s142_142) (= g_s265_268 g_s140_140) (= g_s266_269 g_s141_141) (= g_s267_270 g_s142_142) (= g_s268_271 g_s140_140) (= g_s269_272 g_s141_141) (= g_s270_273 g_s142_142) (= g_s271_274 g_s143_143) (= g_s272_275 g_s144_144) (= g_s273_276 g_s140_140) (= g_s274_277 g_s141_141) (= g_s275_278 g_s142_142) (= g_s276_279 g_s143_143) (= g_s277_280 g_s140_140) (= g_s278_281 g_s141_141) (= g_s279_282 g_s142_142) (= g_s280_283 g_s143_143) (= g_s281_284 g_s140_140) (= g_s282_285 g_s141_141) (= g_s283_286 g_s142_142) (= g_s284_287 g_s143_143) (= g_s285_288 g_s144_144) (= g_s286_289 g_s140_140) (= g_s287_290 g_s141_141) (= g_s288_291 g_s142_142) (= g_s289_292 g_s140_140) (= g_s290_293 g_s141_141) (= g_s291_294 g_s140_140) (= g_s292_295 g_s141_141) (= g_s293_296 g_s142_142) (= g_s294_297 g_s140_140) (= g_s295_298 g_s141_141) (= g_s296_299 g_s142_142) (= g_s298_301 g_s140_140) (= g_s299_302 g_s141_141) (= g_s300_303 g_s142_142) (mem g_s305_308 g_s133_133) (mem g_s306_309 g_s133_133) (mem g_s307_310 g_s133_133) (mem g_s308_311 g_s133_133) (mem g_s309_312 g_s133_133) (mem g_s310_313 g_s133_133) (mem g_s311_314 g_s133_133) (mem g_s312_315 g_s133_133) (mem g_s313_316 g_s133_133) (mem g_s314_317 g_s133_133) (mem g_s315_318 g_s133_133) (mem g_s316_319 g_s133_133) (mem g_s317_320 g_s133_133) (mem g_s318_321 g_s133_133) (mem g_s319_322 g_s133_133) (mem g_s320_323 g_s133_133) (mem g_s321_324 g_s133_133) (mem g_s322_325 g_s133_133) (mem g_s323_326 g_s133_133) (mem g_s324_327 g_s133_133) (mem g_s325_328 g_s133_133) (mem g_s326_329 g_s133_133) (mem g_s327_330 g_s133_133) (mem g_s328_331 g_s133_133) (mem g_s329_332 g_s133_133) (= g_s305_308 g_s140_140) (= g_s306_309 g_s141_141) (= g_s307_310 g_s142_142) (= g_s308_311 g_s143_143) (= g_s309_312 g_s144_144) (= g_s310_313 g_s145_145) (= g_s311_314 g_s146_146) (= g_s312_315 g_s147_147) (= g_s313_316 g_s148_148) (= g_s314_317 g_s149_149) (= g_s315_318 g_s150_150) (= g_s316_319 g_s151_151) (= g_s317_320 g_s152_152) (= g_s318_321 g_s153_153) (= g_s319_322 g_s154_154) (= g_s320_323 g_s155_155) (= g_s321_324 g_s156_156) (= g_s322_325 g_s157_157) (= g_s323_326 g_s158_158) (= g_s324_327 g_s159_159) (= g_s325_328 g_s160_160) (= g_s326_329 g_s161_161) (= g_s327_330 g_s162_162) (= g_s328_331 g_s163_163) (= g_s329_332 g_s164_164) (mem g_s330_333 g_s133_133) (mem g_s331_334 g_s133_133) (mem g_s332_335 g_s133_133) (mem g_s333_336 g_s133_133) (mem g_s334_337 g_s133_133) (mem g_s335_338 g_s133_133) (mem g_s336_339 g_s133_133) (mem g_s337_340 g_s133_133) (mem g_s338_341 g_s133_133) (mem g_s339_342 g_s133_133) (mem g_s340_343 g_s133_133) (mem g_s341_344 g_s133_133) (mem g_s342_345 g_s133_133) (mem g_s343_346 g_s133_133) (= g_s330_333 g_s140_140) (= g_s331_334 g_s141_141) (= g_s332_335 g_s142_142) (= g_s333_336 g_s143_143) (= g_s334_337 g_s144_144) (= g_s335_338 g_s145_145) (= g_s336_339 g_s146_146) (= g_s337_340 g_s147_147) (= g_s338_341 g_s148_148) (= g_s339_342 g_s149_149) (= g_s340_343 g_s150_150) (= g_s341_344 g_s151_151) (= g_s342_345 g_s152_152) (= g_s344_347 g_s140_140) (= g_s345_348 g_s141_141) (= g_s346_349 g_s142_142) (= g_s347_350 g_s143_143) (= g_s348_351 g_s144_144) (= g_s349_352 g_s145_145) (= g_s350_353 g_s146_146) (= g_s351_354 g_s147_147) (= g_s352_355 g_s148_148) (= g_s353_356 g_s149_149) (= g_s354_357 g_s150_150) (= g_s355_358 g_s151_151) (= g_s356_359 g_s152_152) (= g_s357_360 g_s153_153) (= g_s358_361 g_s154_154) (= g_s359_362 g_s155_155) (= g_s360_363 g_s156_156) (= g_s361_364 g_s157_157) (= g_s362_365 g_s158_158) (= g_s363_366 g_s159_159) (= g_s364_367 g_s160_160) (= g_s365_368 g_s161_161) (= g_s366_369 g_s162_162) (= g_s367_370 g_s163_163) (= g_s368_371 g_s164_164) (= g_s369_372 g_s165_165) (= g_s370_373 g_s166_166) (= g_s371_374 g_s167_167) (= g_s372_375 g_s168_168) (= g_s373_376 g_s169_169) (= g_s374_377 g_s170_170) (= g_s375_378 g_s171_171) (= g_s376_379 g_s140_140) (= g_s377_380 g_s141_141) (= g_s378_381 g_s142_142) (= g_s379_382 g_s143_143) (= g_s380_383 g_s144_144) (= g_s381_384 g_s145_145) (= g_s382_385 g_s146_146) (mem g_s383_386 g_s133_133) (mem g_s384_387 g_s133_133) (mem g_s385_388 g_s133_133) (mem g_s386_389 g_s133_133) (mem g_s387_390 g_s133_133) (mem g_s388_391 g_s133_133) (mem g_s389_392 g_s133_133) (mem g_s390_393 g_s133_133) (mem g_s391_394 g_s133_133) (mem g_s392_395 g_s133_133) (mem g_s393_396 g_s133_133) (mem g_s394_397 g_s133_133) (mem g_s395_398 g_s133_133) (mem g_s396_399 g_s133_133) (mem g_s397_400 g_s133_133) (mem g_s398_401 g_s133_133) (mem g_s399_402 g_s133_133) (mem g_s400_403 g_s133_133) (mem g_s401_404 g_s133_133) (mem g_s402_405 g_s133_133) (mem g_s403_406 g_s133_133) (mem g_s404_407 g_s133_133) (mem g_s405_408 g_s133_133) (mem g_s406_409 g_s133_133) (mem g_s407_410 g_s133_133) (mem g_s408_411 g_s133_133) (mem g_s409_412 g_s133_133) (mem g_s410_413 g_s133_133) (mem g_s411_414 g_s133_133) (mem g_s412_415 g_s133_133) (mem g_s413_416 g_s133_133) (mem g_s414_417 g_s133_133) (= g_s383_386 g_s140_140) (= g_s384_387 g_s141_141) (= g_s385_388 g_s142_142) (= g_s386_389 g_s143_143) (= g_s387_390 g_s144_144) (= g_s388_391 g_s145_145) (= g_s389_392 g_s146_146) (= g_s390_393 g_s147_147) (= g_s391_394 g_s148_148) (= g_s392_395 g_s149_149) (= g_s393_396 g_s150_150) (= g_s394_397 g_s151_151) (= g_s395_398 g_s152_152) (= g_s396_399 g_s153_153) (= g_s397_400 g_s154_154) (= g_s398_401 g_s155_155) (= g_s399_402 g_s156_156) (= g_s400_403 g_s157_157) (= g_s401_404 g_s158_158) (= g_s402_405 g_s159_159) (= g_s403_406 g_s160_160) (= g_s404_407 g_s161_161) (= g_s405_408 g_s162_162) (= g_s406_409 g_s163_163) (= g_s407_410 g_s164_164) (= g_s408_411 g_s165_165) (= g_s409_412 g_s166_166) (= g_s410_413 g_s167_167) (= g_s411_414 g_s168_168) (= g_s412_415 g_s169_169) (= g_s413_416 g_s170_170) (= g_s414_417 g_s171_171) (mem g_s415_418 INT) (mem g_s416_419 INT) (mem g_s417_420 INT) (mem g_s418_421 INT) (mem g_s419_422 INT) (mem g_s420_423 g_s221_224) (= g_s420_423 (- 131072000))))
(define-fun |def_seext| () Bool  (mem g_s421_424 g_s222_225))
(define-fun |def_lprp| () Bool true)
(define-fun |def_inprp| () Bool true)
(define-fun |def_inext| () Bool true)
(define-fun |def_inv| () Bool  (mem g_s422_425 g_s221_224))
(define-fun |def_ass| () Bool true)
(define-fun |def_cst| () Bool true)
(define-fun |def_sets| () Bool true)
; PO group 0 
(assert |def_B definitions|)
(assert |def_ctx|)
(assert |def_cst|)
(assert |def_lprp|)
(assert |def_inprp|)
(assert |def_inext|)
(assert |def_seext|)
; PO 1 in group 0
(assert (not (mem 0 g_s221_224)))
(check-sat)
(exit)